2
20 19 
1 10 
2 5 
3 4 
4 9 
5 17 
6 4 
8 19 
9 13 
10 11 
11 14 
12 1 
13 6 
14 3 
15 4 
16 5 
17 8 
18 9 
19 15 
20 4 
100 10
1 20
2 30
5 12
2 39
9 100
4 12
55 43
2 32
1 23
7 89
1 2
2 3
3 4
4 5
5 6
6 7
7 8
8 9
9 10
10 11
11 12
12 13
13 14